0	67	96	189	194	177	144	62	186	132	61	
52	0	128	50	193	119	65	196	66	163	42	
141	47	0	162	170	171	51	131	69	170	106	
136	124	69	0	122	122	81	141	197	139	168	
66	63	71	119	0	92	61	177	27	70	80	
34	104	57	124	95	0	80	24	54	137	77	
41	200	147	161	66	72	0	34	148	59	192	
171	41	57	151	57	65	134	0	188	86	106	
43	195	91	171	36	102	147	27	0	162	193	
43	158	184	164	135	187	30	153	59	0	188	
155	141	167	123	189	44	72	144	118	129	0	
